3 
4  58 
5  20 45 
6  05 24 38 53 
7  07 23 38 53 
8  08 23 38 53 
9  07 22 37 52 
10  07 22 37 52 
11  07 22 37 52 
12  07 22 37 52 
13  08 23 38 53 
14  08 23 38 54 
15  09 24 39 54 
16  09 24 39 54 
17  09 24 39 54 
18  09 24 39 54 
19  09 24 39 54 
20  09 25 39 54 
21  09 24 39 54 
22  11 25 41 
23  05 
0 
